db/inputs/2779856545257200202526121443209492816.smt2
(set-logic QF_FP)
(declare-const x0 (_ FloatingPoint 8 24))
(assert (fp.leq (fp.div RNE x0 x0) (fp.sub RNE x0 x0)))
(assert (fp.geq (fp.neg x0) (fp.sub RNE x0 x0)))
(assert (fp.lt (fp.neg x0) (fp.add RNE x0 x0)))
(assert (fp.leq (fp.div RNE x0 x0) (fp.mul RNE x0 x0)))
(assert (fp.geq (fp.add RNE x0 x0) (fp.sub RNE x0 x0)))
(assert (fp.lt (fp.div RNE x0 x0) (fp.add RNE x0 x0)))
(assert (fp.lt (fp.div RNE x0 x0) (fp.neg x0)))
(assert (fp.gt (fp.add RNE x0 x0) (fp.mul RNE x0 x0)))
(assert (fp.leq (fp.neg x0) (fp.neg x0)))
(assert (fp.lt (fp.sub RNE x0 x0) (fp.neg x0)))
(assert (fp.eq (fp.mul RNE x0 x0) (fp.div RNE x0 x0)))
(assert (fp.geq (fp.sub RNE x0 x0) (fp.neg x0)))
(assert (fp.lt (fp.sub RNE x0 x0) (fp.sub RNE x0 x0)))
(assert (fp.geq (fp.div RNE x0 x0) (fp.div RNE x0 x0)))
(assert (fp.leq (fp.sub RNE x0 x0) (fp.neg x0)))
(assert (fp.lt (fp.add RNE x0 x0) (fp.sub RNE x0 x0)))
(assert (fp.gt (fp.neg x0) (fp.div RNE x0 x0)))
(assert (fp.eq (fp.sub RNE x0 x0) (fp.div RNE x0 x0)))
(assert (fp.lt (fp.add RNE x0 x0) (fp.neg x0)))
(assert (fp.eq (fp.neg x0) (fp.add RNE x0 x0)))
(check-sat)
