db/data/2779856545257200202526121443209492816.z3.out
unsat
-------------------
.291771201
